maximize
OBJ:100x0 + 100x1 + 100x2 + 100x3 + 100x4 + 100x5 + 100x6 + 100x7 + 100x8 + 100x9 + 100x10 + 100x11 + 100x12 + 100x13 + 100x14 + 100x15 + 100x16 + 100x17 + 100x18 + 100x19 + 100x20 + 100x21 + 100x22 + 100x23 + 100x24 + 100x25 + 100x26 + 100x27 + 100x28 + 100x29 + 100x30 + 100x31 + 100x32 + 100x33 + 100x34 + 100x35 + 100x36 + 100x37 + 100x38 + 100x39 + 100x40 + 100x41 + 100x42 + 100x43 + 100x44 + 100x45 + 100x46 + 100x47 + 100x48 + 100x49 + 100x50 + 100x51 + 100x52 + 100x53 + 100x54 + 100x55 + 100x56 + 100x57 + 100x58 + 100x59 + 100x60 + 100x61 + 100x62 + 100x63 - y15_21 - y7_17 - y26_30 - y18_26 - y36_62 - y28_58 - y9_63 - y0_5 - y40_41 - y8_18 - y6_48 - y21_46 - y40_59 - y10_36 - y33_38 - y10_45 - y2_41 - y25_43 - y33_56 - y25_52 - y2_59 - y25_61 - y22_37 - y22_46 - y36_48 - y17_44 - y6_34 - y21_32 - y0_9 - y10_22 - y2_27 - y25_29 - y2_36 - y25_47 - y22_23 - y43_55 - y35_60 - y17_39 - y28_48 - y9_44 - y28_57 - y6_29 - y6_38 - y29_40 - y6_47 - y29_49 - y40_58 - y21_54 - y2_13 - y39_62 - y10_35 - y2_31 - y32_50 - y22_27 - y13_46 - y24_46 - y51_63 - y35_55 - y16_60 - y7_11 - y17_43 - y28_52 - y6_15 - y21_22 - y29_35 - y42_63 - y21_49 - y39_48 - y39_57 - y2_17 - y10_30 - y10_39 - y3_9 - y32_45 - y43_54 - y1_48 - y13_50 - y32_63 - y35_50 - y47_51 - y9_34 - y17_47 - y17_56 - y28_56 - y27_60 - y21_35 - y20_57 - y2_30 - y1_43 - y13_45 - y16_41 - y13_54 - y13_63 - y24_63 - y9_11 - y35_63 - y5_31 - y9_29 - y5_40 - y17_42 - y28_42 - y9_38 - y50_57 - y30_60 - y31_34 - y20_43 - y12_39 - y4_44 - y12_57 - y1_29 - y16_27 - y1_38 - y1_47 - y24_49 - y35_49 - y16_45 - y46_55 - y38_60 - y5_35 - y27_41 - y27_50 - y8_46 - y8_55 - y42_57 - y0_51 - y12_25 - y39_51 - y4_30 - y39_60 - y31_56 - y1_15 - y12_61 - y35_44 - y16_40 - y1_51 - y46_50 - y15_53 - y38_55 - y15_62 - y8_32 - y19_32 - y8_41 - y19_41 - y27_54 - y0_37 - y42_43 - y19_50 - y0_46 - y11_46 - y8_59 - y30_59 - y42_61 - y0_55 - y20_33 - y39_46 - y23_47 - y1_10 - y13_21 - y53_57 - y34_53 - y13_30 - y1_46 - y5_16 - y49_50 - y26_57 - y27_31 - y8_27 - y27_40 - y50_51 - y0_32 - y11_32 - y19_45 - y8_54 - y8_63 - y19_63 - y23_24 - y41_60 - y12_33 - y23_33 - y12_42 - y23_42 - y4_38 - y16_21 - y34_57 - y1_32 - y37_53 - y3_60 - y14_60 - y5_11 - y15_43 - y46_58 - y15_61 - y38_63 - y49_63 - y7_57 - y18_57 - y27_35 - y0_18 - y11_18 - y19_31 - y11_27 - y8_49 - y30_49 - y0_45 - y41_46 - y4_6 - y31_32 - y12_28 - y4_33 - y2_63 - y22_41 - y1_18 - y53_56 - y45_52 - y14_55 - y37_57 - y15_29 - y7_25 - y7_34 - y15_47 - y38_49 - y7_43 - y15_56 - y7_52 - y8_26 - y19_26 - y48_62 - y8_35 - y30_35 - y11_31 - y19_44 - y21_63 - y4_10 - y33_46 - y12_23 - y4_19 - y44_55 - y10_62 - y1_4 - y2_58 - y34_47 - y14_41 - y22_54 - y3_50 - y14_50 - y22_63 - y37_52 - y3_59 - y15_24 - y7_20 - y18_29 - y15_42 - y26_42 - y7_38 - y18_47 - y19_21 - y40_53 - y0_26 - y6_60 - y11_35 - y41_63 - y2_44 - y25_46 - y25_55 - y2_62 - y14_27 - y22_40 - y34_42 - y22_49 - y14_45 - y22_58 - y15_19 - y7_15 - y47_60 - y26_37 - y7_33 - y26_46 - y0_3 - y8_16 - y48_52 - y11_12 - y40_48 - y11_21 - y29_57 - y10_34 - y41_49 - y25_32 - y10_43 - y44_45 - y52_58 - y2_39 - y25_41 - y33_54 - y44_54 - y2_48 - y2_57 - y3_22 - y25_59 - y22_35 - y34_37 - y14_31 - y22_44 - y22_53 - y3_49 - y15_23 - y47_55 - y15_32 - y17_51 - y26_32 - y18_28 - y28_51 - y9_56 - y6_41 - y0_16 - y6_50 - y21_48 - y10_38 - y25_36 - y2_43 - y10_56 - y51_57 - y22_30 - y14_26 - y22_39 - y15_18 - y36_50 - y28_46 - y7_23 - y18_23 - y36_59 - y17_55 - y28_55 - y5_62 - y9_60 - y0_2 - y21_34 - y6_54 - y29_56 - y21_61 - y10_24 - y25_31 - y25_40 - y10_51 - y43_48 - y3_21 - y16_58 - y17_32 - y28_32 - y7_9 - y28_41 - y9_46 - y5_57 - y28_59 - y58_60 - y29_33 - y21_29 - y6_40 - y40_42 - y21_47 - y6_58 - y10_28 - y2_42 - y24_39 - y35_39 - y43_52 - y3_25 - y43_61 - y35_57 - y17_18 - y16_62 - y5_34 - y36_49 - y5_43 - y17_45 - y5_61 - y6_26 - y21_24 - y6_44 - y39_50 - y2_10 - y39_59 - y2_19 - y31_55 - y24_34 - y32_47 - y51_60 - y13_43 - y32_56 - y43_56 - y13_52 - y1_59 - y16_57 - y9_18 - y36_44 - y17_40 - y3_56 - y9_36 - y9_45 - y5_56 - y6_21 - y9_54 - y50_55 - y6_39 - y2_5 - y31_41 - y2_14 - y4_42 - y13_20 - y32_33 - y24_29 - y51_55 - y24_38 - y16_34 - y1_45 - y35_47 - y5_15 - y9_13 - y5_24 - y17_26 - y46_62 - y9_22 - y38_58 - y9_31 - y5_42 - y9_40 - y27_57 - y19_53 - y30_53 - y0_49 - y8_62 - y19_62 - y11_58 - y20_36 - y10_13 - y39_49 - y2_9 - y2_18 - y31_54 - y12_50 - y20_63 - y31_63 - y1_22 - y4_55 - y16_20 - y13_42 - y16_47 - y38_44 - y17_21 - y46_57 - y5_28 - y9_26 - y15_60 - y5_37 - y27_43 - y8_39 - y8_48 - y19_48 - y50_63 - y11_44 - y42_59 - y11_53 - y20_31 - y11_62 - y20_58 - y12_54 - y13_19 - y23_54 - y34_60 - y24_37 - y16_33 - y26_55 - y49_57 - y8_25 - y19_43 - y27_56 - y11_39 - y42_54 - y0_48 - y19_61 - y20_26 - y20_35 - y31_35 - y31_44 - y4_27 - y1_3 - y1_12 - y13_14 - y4_45 - y1_30 - y1_39 - y37_60 - y5_9 - y46_47 - y38_52 - y15_59 - y7_55 - y19_20 - y30_38 - y19_56 - y52_53 - y12_26 - y4_22 - y33_58 - y23_35 - y44_58 - y25_63 - y13_18 - y22_48 - y45_59 - y37_55 - y26_36 - y15_45 - y7_41 - y49_56 - y7_50 - y0_11 - y18_59 - y27_37 - y11_20 - y8_33 - y30_33 - y27_46 - y8_42 - y11_38 - y11_47 - y60_61 - y12_21 - y12_30 - y23_30 - y25_49 - y25_58 - y1_20 - y14_39 - y53_58 - y22_52 - y34_63 - y56_63 - y3_57 - y37_59 - y15_31 - y7_27 - y37_49 - y26_40 - y8_10 - y15_58 - y18_54 - y11_15 - y19_28 - y0_24 - y30_37 - y21_56 - y41_52 - y4_12 - y41_61 - y10_55 - y2_51 - y25_62 - y3_34 - y34_49 - y3_43 - y14_43 - y37_45 - y14_52 - y18_22 - y18_40 - y8_14 - y19_23 - y11_19 - y40_55 - y30_32 - y0_28 - y21_60 - y10_41 - y41_56 - y33_52 - y10_59 - y33_61 - y2_55 - y3_20 - y14_20 - y22_42 - y34_44 - y22_51 - y14_47 - y7_8 - y14_56
 Subject to
C1: x0+x2-y0_2 <=1 
C2: x0+x3-y0_3 <=1 
C3: x0+x5-y0_5 <=1 
C4: x0+x7 <=1 
C5: x0+x8 <=1 
C6: x0+x9-y0_9 <=1 
C7: x0+x11-y0_11 <=1 
C8: x0+x16-y0_16 <=1 
C9: x0+x17 <=1 
C10: x0+x18-y0_18 <=1 
C11: x0+x19 <=1 
C12: x0+x24-y0_24 <=1 
C13: x0+x25 <=1 
C14: x0+x26-y0_26 <=1 
C15: x0+x27 <=1 
C16: x0+x28-y0_28 <=1 
C17: x0+x31 <=1 
C18: x0+x32-y0_32 <=1 
C19: x0+x33 <=1 
C20: x0+x37-y0_37 <=1 
C21: x0+x38 <=1 
C22: x0+x42 <=1 
C23: x0+x43 <=1 
C24: x0+x44 <=1 
C25: x0+x45-y0_45 <=1 
C26: x0+x46-y0_46 <=1 
C27: x0+x47 <=1 
C28: x0+x48-y0_48 <=1 
C29: x0+x49-y0_49 <=1 
C30: x0+x51-y0_51 <=1 
C31: x0+x55-y0_55 <=1 
C32: x0+x59 <=1 
C33: x0+x60 <=1 
C34: x1+x2 <=1 
C35: x1+x3-y1_3 <=1 
C36: x1+x4-y1_4 <=1 
C37: x1+x5 <=1 
C38: x1+x8 <=1 
C39: x1+x10-y1_10 <=1 
C40: x1+x11 <=1 
C41: x1+x12-y1_12 <=1 
C42: x1+x13 <=1 
C43: x1+x14 <=1 
C44: x1+x15-y1_15 <=1 
C45: x1+x17 <=1 
C46: x1+x18-y1_18 <=1 
C47: x1+x19 <=1 
C48: x1+x20-y1_20 <=1 
C49: x1+x21 <=1 
C50: x1+x22-y1_22 <=1 
C51: x1+x25 <=1 
C52: x1+x29-y1_29 <=1 
C53: x1+x30-y1_30 <=1 
C54: x1+x31 <=1 
C55: x1+x32-y1_32 <=1 
C56: x1+x34 <=1 
C57: x1+x38-y1_38 <=1 
C58: x1+x39-y1_39 <=1 
C59: x1+x40 <=1 
C60: x1+x42 <=1 
C61: x1+x43-y1_43 <=1 
C62: x1+x44 <=1 
C63: x1+x45-y1_45 <=1 
C64: x1+x46-y1_46 <=1 
C65: x1+x47-y1_47 <=1 
C66: x1+x48-y1_48 <=1 
C67: x1+x49 <=1 
C68: x1+x51-y1_51 <=1 
C69: x1+x52 <=1 
C70: x1+x53 <=1 
C71: x1+x54 <=1 
C72: x1+x56 <=1 
C73: x1+x59-y1_59 <=1 
C74: x1+x60 <=1 
C75: x1+x61 <=1 
C76: x1+x63 <=1 
C77: x2+x5-y2_5 <=1 
C78: x2+x6 <=1 
C79: x2+x8 <=1 
C80: x2+x9-y2_9 <=1 
C81: x2+x10-y2_10 <=1 
C82: x2+x11 <=1 
C83: x2+x12 <=1 
C84: x2+x13-y2_13 <=1 
C85: x2+x14-y2_14 <=1 
C86: x2+x17-y2_17 <=1 
C87: x2+x18-y2_18 <=1 
C88: x2+x19-y2_19 <=1 
C89: x2+x20 <=1 
C90: x2+x21 <=1 
C91: x2+x26 <=1 
C92: x2+x27-y2_27 <=1 
C93: x2+x28 <=1 
C94: x2+x30-y2_30 <=1 
C95: x2+x31-y2_31 <=1 
C96: x2+x36-y2_36 <=1 
C97: x2+x37 <=1 
C98: x2+x39-y2_39 <=1 
C99: x2+x40 <=1 
C100: x2+x41-y2_41 <=1 
C101: x2+x42-y2_42 <=1 
C102: x2+x43-y2_43 <=1 
C103: x2+x44-y2_44 <=1 
C104: x2+x46 <=1 
C105: x2+x48-y2_48 <=1 
C106: x2+x49 <=1 
C107: x2+x51-y2_51 <=1 
C108: x2+x52 <=1 
C109: x2+x53 <=1 
C110: x2+x55-y2_55 <=1 
C111: x2+x57-y2_57 <=1 
C112: x2+x58-y2_58 <=1 
C113: x2+x59-y2_59 <=1 
C114: x2+x60 <=1 
C115: x2+x62-y2_62 <=1 
C116: x2+x63-y2_63 <=1 
C117: x3+x4 <=1 
C118: x3+x6 <=1 
C119: x3+x9-y3_9 <=1 
C120: x3+x10 <=1 
C121: x3+x11 <=1 
C122: x3+x13 <=1 
C123: x3+x14 <=1 
C124: x3+x20-y3_20 <=1 
C125: x3+x21-y3_21 <=1 
C126: x3+x22-y3_22 <=1 
C127: x3+x25-y3_25 <=1 
C128: x3+x26 <=1 
C129: x3+x31 <=1 
C130: x3+x32 <=1 
C131: x3+x34-y3_34 <=1 
C132: x3+x42 <=1 
C133: x3+x43-y3_43 <=1 
C134: x3+x47 <=1 
C135: x3+x48 <=1 
C136: x3+x49-y3_49 <=1 
C137: x3+x50-y3_50 <=1 
C138: x3+x51 <=1 
C139: x3+x53 <=1 
C140: x3+x56-y3_56 <=1 
C141: x3+x57-y3_57 <=1 
C142: x3+x59-y3_59 <=1 
C143: x3+x60-y3_60 <=1 
C144: x3+x62 <=1 
C145: x4+x6-y4_6 <=1 
C146: x4+x9 <=1 
C147: x4+x10-y4_10 <=1 
C148: x4+x12-y4_12 <=1 
C149: x4+x19-y4_19 <=1 
C150: x4+x22-y4_22 <=1 
C151: x4+x27-y4_27 <=1 
C152: x4+x28 <=1 
C153: x4+x29 <=1 
C154: x4+x30-y4_30 <=1 
C155: x4+x32 <=1 
C156: x4+x33-y4_33 <=1 
C157: x4+x35 <=1 
C158: x4+x36 <=1 
C159: x4+x37 <=1 
C160: x4+x38-y4_38 <=1 
C161: x4+x39 <=1 
C162: x4+x41 <=1 
C163: x4+x42-y4_42 <=1 
C164: x4+x43 <=1 
C165: x4+x44-y4_44 <=1 
C166: x4+x45-y4_45 <=1 
C167: x4+x48 <=1 
C168: x4+x53 <=1 
C169: x4+x55-y4_55 <=1 
C170: x4+x56 <=1 
C171: x4+x58 <=1 
C172: x4+x59 <=1 
C173: x4+x62 <=1 
C174: x5+x6 <=1 
C175: x5+x7 <=1 
C176: x5+x8 <=1 
C177: x5+x9-y5_9 <=1 
C178: x5+x10 <=1 
C179: x5+x11-y5_11 <=1 
C180: x5+x15-y5_15 <=1 
C181: x5+x16-y5_16 <=1 
C182: x5+x19 <=1 
C183: x5+x20 <=1 
C184: x5+x21 <=1 
C185: x5+x24-y5_24 <=1 
C186: x5+x26 <=1 
C187: x5+x28-y5_28 <=1 
C188: x5+x29 <=1 
C189: x5+x30 <=1 
C190: x5+x31-y5_31 <=1 
C191: x5+x33 <=1 
C192: x5+x34-y5_34 <=1 
C193: x5+x35-y5_35 <=1 
C194: x5+x37-y5_37 <=1 
C195: x5+x38 <=1 
C196: x5+x40-y5_40 <=1 
C197: x5+x41 <=1 
C198: x5+x42-y5_42 <=1 
C199: x5+x43-y5_43 <=1 
C200: x5+x45 <=1 
C201: x5+x49 <=1 
C202: x5+x50 <=1 
C203: x5+x51 <=1 
C204: x5+x52 <=1 
C205: x5+x56-y5_56 <=1 
C206: x5+x57-y5_57 <=1 
C207: x5+x58 <=1 
C208: x5+x59 <=1 
C209: x5+x61-y5_61 <=1 
C210: x5+x62-y5_62 <=1 
C211: x6+x8 <=1 
C212: x6+x11 <=1 
C213: x6+x12 <=1 
C214: x6+x15-y6_15 <=1 
C215: x6+x16 <=1 
C216: x6+x17 <=1 
C217: x6+x18 <=1 
C218: x6+x20 <=1 
C219: x6+x21-y6_21 <=1 
C220: x6+x22 <=1 
C221: x6+x24 <=1 
C222: x6+x26-y6_26 <=1 
C223: x6+x29-y6_29 <=1 
C224: x6+x32 <=1 
C225: x6+x33 <=1 
C226: x6+x34-y6_34 <=1 
C227: x6+x35 <=1 
C228: x6+x37 <=1 
C229: x6+x38-y6_38 <=1 
C230: x6+x39-y6_39 <=1 
C231: x6+x40-y6_40 <=1 
C232: x6+x41-y6_41 <=1 
C233: x6+x42 <=1 
C234: x6+x43 <=1 
C235: x6+x44-y6_44 <=1 
C236: x6+x46 <=1 
C237: x6+x47-y6_47 <=1 
C238: x6+x48-y6_48 <=1 
C239: x6+x50-y6_50 <=1 
C240: x6+x51 <=1 
C241: x6+x53 <=1 
C242: x6+x54-y6_54 <=1 
C243: x6+x55 <=1 
C244: x6+x56 <=1 
C245: x6+x58-y6_58 <=1 
C246: x6+x59 <=1 
C247: x6+x60-y6_60 <=1 
C248: x6+x61 <=1 
C249: x7+x8-y7_8 <=1 
C250: x7+x9-y7_9 <=1 
C251: x7+x11-y7_11 <=1 
C252: x7+x12 <=1 
C253: x7+x14 <=1 
C254: x7+x15-y7_15 <=1 
C255: x7+x17-y7_17 <=1 
C256: x7+x20-y7_20 <=1 
C257: x7+x21 <=1 
C258: x7+x23-y7_23 <=1 
C259: x7+x24 <=1 
C260: x7+x25-y7_25 <=1 
C261: x7+x27-y7_27 <=1 
C262: x7+x29 <=1 
C263: x7+x32 <=1 
C264: x7+x33-y7_33 <=1 
C265: x7+x34-y7_34 <=1 
C266: x7+x35 <=1 
C267: x7+x37 <=1 
C268: x7+x38-y7_38 <=1 
C269: x7+x39 <=1 
C270: x7+x41-y7_41 <=1 
C271: x7+x43-y7_43 <=1 
C272: x7+x44 <=1 
C273: x7+x45 <=1 
C274: x7+x47 <=1 
C275: x7+x49 <=1 
C276: x7+x50-y7_50 <=1 
C277: x7+x52-y7_52 <=1 
C278: x7+x54 <=1 
C279: x7+x55-y7_55 <=1 
C280: x7+x56 <=1 
C281: x7+x57-y7_57 <=1 
C282: x7+x59 <=1 
C283: x7+x61 <=1 
C284: x7+x63 <=1 
C285: x8+x10-y8_10 <=1 
C286: x8+x11 <=1 
C287: x8+x13 <=1 
C288: x8+x14-y8_14 <=1 
C289: x8+x16-y8_16 <=1 
C290: x8+x18-y8_18 <=1 
C291: x8+x19 <=1 
C292: x8+x20 <=1 
C293: x8+x21 <=1 
C294: x8+x23 <=1 
C295: x8+x25-y8_25 <=1 
C296: x8+x26-y8_26 <=1 
C297: x8+x27-y8_27 <=1 
C298: x8+x30 <=1 
C299: x8+x32-y8_32 <=1 
C300: x8+x33-y8_33 <=1 
C301: x8+x35-y8_35 <=1 
C302: x8+x38 <=1 
C303: x8+x39-y8_39 <=1 
C304: x8+x41-y8_41 <=1 
C305: x8+x42-y8_42 <=1 
C306: x8+x43 <=1 
C307: x8+x46-y8_46 <=1 
C308: x8+x48-y8_48 <=1 
C309: x8+x49-y8_49 <=1 
C310: x8+x50 <=1 
C311: x8+x54-y8_54 <=1 
C312: x8+x55-y8_55 <=1 
C313: x8+x57 <=1 
C314: x8+x58 <=1 
C315: x8+x59-y8_59 <=1 
C316: x8+x60 <=1 
C317: x8+x62-y8_62 <=1 
C318: x8+x63-y8_63 <=1 
C319: x9+x11-y9_11 <=1 
C320: x9+x12 <=1 
C321: x9+x13-y9_13 <=1 
C322: x9+x14 <=1 
C323: x9+x16 <=1 
C324: x9+x18-y9_18 <=1 
C325: x9+x19 <=1 
C326: x9+x22-y9_22 <=1 
C327: x9+x23 <=1 
C328: x9+x24 <=1 
C329: x9+x26-y9_26 <=1 
C330: x9+x27 <=1 
C331: x9+x29-y9_29 <=1 
C332: x9+x30 <=1 
C333: x9+x31-y9_31 <=1 
C334: x9+x32 <=1 
C335: x9+x33 <=1 
C336: x9+x34-y9_34 <=1 
C337: x9+x36-y9_36 <=1 
C338: x9+x38-y9_38 <=1 
C339: x9+x39 <=1 
C340: x9+x40-y9_40 <=1 
C341: x9+x43 <=1 
C342: x9+x44-y9_44 <=1 
C343: x9+x45-y9_45 <=1 
C344: x9+x46-y9_46 <=1 
C345: x9+x47 <=1 
C346: x9+x49 <=1 
C347: x9+x50 <=1 
C348: x9+x52 <=1 
C349: x9+x53 <=1 
C350: x9+x54-y9_54 <=1 
C351: x9+x56-y9_56 <=1 
C352: x9+x57 <=1 
C353: x9+x60-y9_60 <=1 
C354: x9+x63-y9_63 <=1 
C355: x10+x11 <=1 
C356: x10+x13-y10_13 <=1 
C357: x10+x17 <=1 
C358: x10+x18 <=1 
C359: x10+x22-y10_22 <=1 
C360: x10+x24-y10_24 <=1 
C361: x10+x25 <=1 
C362: x10+x28-y10_28 <=1 
C363: x10+x30-y10_30 <=1 
C364: x10+x31 <=1 
C365: x10+x33 <=1 
C366: x10+x34-y10_34 <=1 
C367: x10+x35-y10_35 <=1 
C368: x10+x36-y10_36 <=1 
C369: x10+x38-y10_38 <=1 
C370: x10+x39-y10_39 <=1 
C371: x10+x41-y10_41 <=1 
C372: x10+x43-y10_43 <=1 
C373: x10+x44 <=1 
C374: x10+x45-y10_45 <=1 
C375: x10+x46 <=1 
C376: x10+x51-y10_51 <=1 
C377: x10+x52 <=1 
C378: x10+x53 <=1 
C379: x10+x54 <=1 
C380: x10+x55-y10_55 <=1 
C381: x10+x56-y10_56 <=1 
C382: x10+x59-y10_59 <=1 
C383: x10+x60 <=1 
C384: x10+x62-y10_62 <=1 
C385: x10+x63 <=1 
C386: x11+x12-y11_12 <=1 
C387: x11+x15-y11_15 <=1 
C388: x11+x17 <=1 
C389: x11+x18-y11_18 <=1 
C390: x11+x19-y11_19 <=1 
C391: x11+x20-y11_20 <=1 
C392: x11+x21-y11_21 <=1 
C393: x11+x23 <=1 
C394: x11+x27-y11_27 <=1 
C395: x11+x31-y11_31 <=1 
C396: x11+x32-y11_32 <=1 
C397: x11+x34 <=1 
C398: x11+x35-y11_35 <=1 
C399: x11+x38-y11_38 <=1 
C400: x11+x39-y11_39 <=1 
C401: x11+x41 <=1 
C402: x11+x42 <=1 
C403: x11+x44-y11_44 <=1 
C404: x11+x46-y11_46 <=1 
C405: x11+x47-y11_47 <=1 
C406: x11+x53-y11_53 <=1 
C407: x11+x54 <=1 
C408: x11+x55 <=1 
C409: x11+x57 <=1 
C410: x11+x58-y11_58 <=1 
C411: x11+x59 <=1 
C412: x11+x60 <=1 
C413: x11+x62-y11_62 <=1 
C414: x12+x20 <=1 
C415: x12+x21-y12_21 <=1 
C416: x12+x23-y12_23 <=1 
C417: x12+x25-y12_25 <=1 
C418: x12+x26-y12_26 <=1 
C419: x12+x28-y12_28 <=1 
C420: x12+x29 <=1 
C421: x12+x30-y12_30 <=1 
C422: x12+x31 <=1 
C423: x12+x32 <=1 
C424: x12+x33-y12_33 <=1 
C425: x12+x34 <=1 
C426: x12+x35 <=1 
C427: x12+x38 <=1 
C428: x12+x39-y12_39 <=1 
C429: x12+x42-y12_42 <=1 
C430: x12+x48 <=1 
C431: x12+x50-y12_50 <=1 
C432: x12+x53 <=1 
C433: x12+x54-y12_54 <=1 
C434: x12+x56 <=1 
C435: x12+x57-y12_57 <=1 
C436: x12+x59 <=1 
C437: x12+x60 <=1 
C438: x12+x61-y12_61 <=1 
C439: x13+x14-y13_14 <=1 
C440: x13+x18-y13_18 <=1 
C441: x13+x19-y13_19 <=1 
C442: x13+x20-y13_20 <=1 
C443: x13+x21-y13_21 <=1 
C444: x13+x22 <=1 
C445: x13+x24 <=1 
C446: x13+x25 <=1 
C447: x13+x26 <=1 
C448: x13+x29 <=1 
C449: x13+x30-y13_30 <=1 
C450: x13+x31 <=1 
C451: x13+x32 <=1 
C452: x13+x36 <=1 
C453: x13+x37 <=1 
C454: x13+x38 <=1 
C455: x13+x42-y13_42 <=1 
C456: x13+x43-y13_43 <=1 
C457: x13+x44 <=1 
C458: x13+x45-y13_45 <=1 
C459: x13+x46-y13_46 <=1 
C460: x13+x49 <=1 
C461: x13+x50-y13_50 <=1 
C462: x13+x52-y13_52 <=1 
C463: x13+x54-y13_54 <=1 
C464: x13+x57 <=1 
C465: x13+x58 <=1 
C466: x13+x60 <=1 
C467: x13+x63-y13_63 <=1 
C468: x14+x15 <=1 
C469: x14+x18 <=1 
C470: x14+x20-y14_20 <=1 
C471: x14+x22 <=1 
C472: x14+x26-y14_26 <=1 
C473: x14+x27-y14_27 <=1 
C474: x14+x29 <=1 
C475: x14+x30 <=1 
C476: x14+x31-y14_31 <=1 
C477: x14+x38 <=1 
C478: x14+x39-y14_39 <=1 
C479: x14+x41-y14_41 <=1 
C480: x14+x43-y14_43 <=1 
C481: x14+x44 <=1 
C482: x14+x45-y14_45 <=1 
C483: x14+x47-y14_47 <=1 
C484: x14+x50-y14_50 <=1 
C485: x14+x51 <=1 
C486: x14+x52-y14_52 <=1 
C487: x14+x53 <=1 
C488: x14+x54 <=1 
C489: x14+x55-y14_55 <=1 
C490: x14+x56-y14_56 <=1 
C491: x14+x57 <=1 
C492: x14+x60-y14_60 <=1 
C493: x14+x62 <=1 
C494: x15+x16 <=1 
C495: x15+x18-y15_18 <=1 
C496: x15+x19-y15_19 <=1 
C497: x15+x20 <=1 
C498: x15+x21-y15_21 <=1 
C499: x15+x23-y15_23 <=1 
C500: x15+x24-y15_24 <=1 
C501: x15+x25 <=1 
C502: x15+x29-y15_29 <=1 
C503: x15+x31-y15_31 <=1 
C504: x15+x32-y15_32 <=1 
C505: x15+x33 <=1 
C506: x15+x34 <=1 
C507: x15+x37 <=1 
C508: x15+x38 <=1 
C509: x15+x40 <=1 
C510: x15+x42-y15_42 <=1 
C511: x15+x43-y15_43 <=1 
C512: x15+x45-y15_45 <=1 
C513: x15+x46 <=1 
C514: x15+x47-y15_47 <=1 
C515: x15+x51 <=1 
C516: x15+x53-y15_53 <=1 
C517: x15+x56-y15_56 <=1 
C518: x15+x58-y15_58 <=1 
C519: x15+x59-y15_59 <=1 
C520: x15+x60-y15_60 <=1 
C521: x15+x61-y15_61 <=1 
C522: x15+x62-y15_62 <=1 
C523: x15+x63 <=1 
C524: x16+x20-y16_20 <=1 
C525: x16+x21-y16_21 <=1 
C526: x16+x24 <=1 
C527: x16+x27-y16_27 <=1 
C528: x16+x28 <=1 
C529: x16+x33-y16_33 <=1 
C530: x16+x34-y16_34 <=1 
C531: x16+x35 <=1 
C532: x16+x39 <=1 
C533: x16+x40-y16_40 <=1 
C534: x16+x41-y16_41 <=1 
C535: x16+x43 <=1 
C536: x16+x44 <=1 
C537: x16+x45-y16_45 <=1 
C538: x16+x47-y16_47 <=1 
C539: x16+x48 <=1 
C540: x16+x49 <=1 
C541: x16+x50 <=1 
C542: x16+x51 <=1 
C543: x16+x55 <=1 
C544: x16+x57-y16_57 <=1 
C545: x16+x58-y16_58 <=1 
C546: x16+x60-y16_60 <=1 
C547: x16+x61 <=1 
C548: x16+x62-y16_62 <=1 
C549: x17+x18-y17_18 <=1 
C550: x17+x19 <=1 
C551: x17+x21-y17_21 <=1 
C552: x17+x22 <=1 
C553: x17+x23 <=1 
C554: x17+x25 <=1 
C555: x17+x26-y17_26 <=1 
C556: x17+x27 <=1 
C557: x17+x28 <=1 
C558: x17+x30 <=1 
C559: x17+x31 <=1 
C560: x17+x32-y17_32 <=1 
C561: x17+x35 <=1 
C562: x17+x37 <=1 
C563: x17+x39-y17_39 <=1 
C564: x17+x40-y17_40 <=1 
C565: x17+x41 <=1 
C566: x17+x42-y17_42 <=1 
C567: x17+x43-y17_43 <=1 
C568: x17+x44-y17_44 <=1 
C569: x17+x45-y17_45 <=1 
C570: x17+x47-y17_47 <=1 
C571: x17+x49 <=1 
C572: x17+x50 <=1 
C573: x17+x51-y17_51 <=1 
C574: x17+x52 <=1 
C575: x17+x53 <=1 
C576: x17+x55-y17_55 <=1 
C577: x17+x56-y17_56 <=1 
C578: x17+x57 <=1 
C579: x17+x58 <=1 
C580: x17+x61 <=1 
C581: x17+x62 <=1 
C582: x18+x19 <=1 
C583: x18+x22-y18_22 <=1 
C584: x18+x23-y18_23 <=1 
C585: x18+x24 <=1 
C586: x18+x26-y18_26 <=1 
C587: x18+x27 <=1 
C588: x18+x28-y18_28 <=1 
C589: x18+x29-y18_29 <=1 
C590: x18+x31 <=1 
C591: x18+x33 <=1 
C592: x18+x36 <=1 
C593: x18+x39 <=1 
C594: x18+x40-y18_40 <=1 
C595: x18+x41 <=1 
C596: x18+x42 <=1 
C597: x18+x43 <=1 
C598: x18+x45 <=1 
C599: x18+x46 <=1 
C600: x18+x47-y18_47 <=1 
C601: x18+x48 <=1 
C602: x18+x50 <=1 
C603: x18+x51 <=1 
C604: x18+x54-y18_54 <=1 
C605: x18+x55 <=1 
C606: x18+x56 <=1 
C607: x18+x57-y18_57 <=1 
C608: x18+x59-y18_59 <=1 
C609: x18+x61 <=1 
C610: x18+x62 <=1 
C611: x19+x20-y19_20 <=1 
C612: x19+x21-y19_21 <=1 
C613: x19+x23-y19_23 <=1 
C614: x19+x25 <=1 
C615: x19+x26-y19_26 <=1 
C616: x19+x28-y19_28 <=1 
C617: x19+x29 <=1 
C618: x19+x30 <=1 
C619: x19+x31-y19_31 <=1 
C620: x19+x32-y19_32 <=1 
C621: x19+x33 <=1 
C622: x19+x35 <=1 
C623: x19+x39 <=1 
C624: x19+x41-y19_41 <=1 
C625: x19+x42 <=1 
C626: x19+x43-y19_43 <=1 
C627: x19+x44-y19_44 <=1 
C628: x19+x45-y19_45 <=1 
C629: x19+x46 <=1 
C630: x19+x47 <=1 
C631: x19+x48-y19_48 <=1 
C632: x19+x50-y19_50 <=1 
C633: x19+x51 <=1 
C634: x19+x52 <=1 
C635: x19+x53-y19_53 <=1 
C636: x19+x54 <=1 
C637: x19+x55 <=1 
C638: x19+x56-y19_56 <=1 
C639: x19+x58 <=1 
C640: x19+x59 <=1 
C641: x19+x61-y19_61 <=1 
C642: x19+x62-y19_62 <=1 
C643: x19+x63-y19_63 <=1 
C644: x20+x22 <=1 
C645: x20+x26-y20_26 <=1 
C646: x20+x29 <=1 
C647: x20+x31-y20_31 <=1 
C648: x20+x32 <=1 
C649: x20+x33-y20_33 <=1 
C650: x20+x35-y20_35 <=1 
C651: x20+x36-y20_36 <=1 
C652: x20+x38 <=1 
C653: x20+x41 <=1 
C654: x20+x42 <=1 
C655: x20+x43-y20_43 <=1 
C656: x20+x44 <=1 
C657: x20+x45 <=1 
C658: x20+x51 <=1 
C659: x20+x52 <=1 
C660: x20+x53 <=1 
C661: x20+x54 <=1 
C662: x20+x57-y20_57 <=1 
C663: x20+x58-y20_58 <=1 
C664: x20+x61 <=1 
C665: x20+x63-y20_63 <=1 
C666: x21+x22-y21_22 <=1 
C667: x21+x23 <=1 
C668: x21+x24-y21_24 <=1 
C669: x21+x25 <=1 
C670: x21+x26 <=1 
C671: x21+x28 <=1 
C672: x21+x29-y21_29 <=1 
C673: x21+x30 <=1 
C674: x21+x32-y21_32 <=1 
C675: x21+x34-y21_34 <=1 
C676: x21+x35-y21_35 <=1 
C677: x21+x36 <=1 
C678: x21+x37 <=1 
C679: x21+x43 <=1 
C680: x21+x44 <=1 
C681: x21+x46-y21_46 <=1 
C682: x21+x47-y21_47 <=1 
C683: x21+x48-y21_48 <=1 
C684: x21+x49-y21_49 <=1 
C685: x21+x50 <=1 
C686: x21+x51 <=1 
C687: x21+x54-y21_54 <=1 
C688: x21+x55 <=1 
C689: x21+x56-y21_56 <=1 
C690: x21+x58 <=1 
C691: x21+x60-y21_60 <=1 
C692: x21+x61-y21_61 <=1 
C693: x21+x63-y21_63 <=1 
C694: x22+x23-y22_23 <=1 
C695: x22+x25 <=1 
C696: x22+x27-y22_27 <=1 
C697: x22+x28 <=1 
C698: x22+x30-y22_30 <=1 
C699: x22+x35-y22_35 <=1 
C700: x22+x36 <=1 
C701: x22+x37-y22_37 <=1 
C702: x22+x38 <=1 
C703: x22+x39-y22_39 <=1 
C704: x22+x40-y22_40 <=1 
C705: x22+x41-y22_41 <=1 
C706: x22+x42-y22_42 <=1 
C707: x22+x44-y22_44 <=1 
C708: x22+x45 <=1 
C709: x22+x46-y22_46 <=1 
C710: x22+x48-y22_48 <=1 
C711: x22+x49-y22_49 <=1 
C712: x22+x50 <=1 
C713: x22+x51-y22_51 <=1 
C714: x22+x52-y22_52 <=1 
C715: x22+x53-y22_53 <=1 
C716: x22+x54-y22_54 <=1 
C717: x22+x55 <=1 
C718: x22+x56 <=1 
C719: x22+x58-y22_58 <=1 
C720: x22+x59 <=1 
C721: x22+x60 <=1 
C722: x22+x61 <=1 
C723: x22+x62 <=1 
C724: x22+x63-y22_63 <=1 
C725: x23+x24-y23_24 <=1 
C726: x23+x26 <=1 
C727: x23+x27 <=1 
C728: x23+x28 <=1 
C729: x23+x29 <=1 
C730: x23+x30-y23_30 <=1 
C731: x23+x33-y23_33 <=1 
C732: x23+x34 <=1 
C733: x23+x35-y23_35 <=1 
C734: x23+x37 <=1 
C735: x23+x38 <=1 
C736: x23+x39 <=1 
C737: x23+x41 <=1 
C738: x23+x42-y23_42 <=1 
C739: x23+x45 <=1 
C740: x23+x47-y23_47 <=1 
C741: x23+x49 <=1 
C742: x23+x51 <=1 
C743: x23+x54-y23_54 <=1 
C744: x23+x55 <=1 
C745: x23+x57 <=1 
C746: x23+x63 <=1 
C747: x24+x26 <=1 
C748: x24+x27 <=1 
C749: x24+x28 <=1 
C750: x24+x29-y24_29 <=1 
C751: x24+x32 <=1 
C752: x24+x34-y24_34 <=1 
C753: x24+x36 <=1 
C754: x24+x37-y24_37 <=1 
C755: x24+x38-y24_38 <=1 
C756: x24+x39-y24_39 <=1 
C757: x24+x43 <=1 
C758: x24+x46-y24_46 <=1 
C759: x24+x49-y24_49 <=1 
C760: x24+x51 <=1 
C761: x24+x52 <=1 
C762: x24+x53 <=1 
C763: x24+x54 <=1 
C764: x24+x55 <=1 
C765: x24+x59 <=1 
C766: x24+x60 <=1 
C767: x24+x63-y24_63 <=1 
C768: x25+x27 <=1 
C769: x25+x29-y25_29 <=1 
C770: x25+x30 <=1 
C771: x25+x31-y25_31 <=1 
C772: x25+x32-y25_32 <=1 
C773: x25+x36-y25_36 <=1 
C774: x25+x37 <=1 
C775: x25+x40-y25_40 <=1 
C776: x25+x41-y25_41 <=1 
C777: x25+x43-y25_43 <=1 
C778: x25+x46-y25_46 <=1 
C779: x25+x47-y25_47 <=1 
C780: x25+x49-y25_49 <=1 
C781: x25+x50 <=1 
C782: x25+x51 <=1 
C783: x25+x52-y25_52 <=1 
C784: x25+x55-y25_55 <=1 
C785: x25+x57 <=1 
C786: x25+x58-y25_58 <=1 
C787: x25+x59-y25_59 <=1 
C788: x25+x60 <=1 
C789: x25+x61-y25_61 <=1 
C790: x25+x62-y25_62 <=1 
C791: x25+x63-y25_63 <=1 
C792: x26+x28 <=1 
C793: x26+x30-y26_30 <=1 
C794: x26+x31 <=1 
C795: x26+x32-y26_32 <=1 
C796: x26+x33 <=1 
C797: x26+x35 <=1 
C798: x26+x36-y26_36 <=1 
C799: x26+x37-y26_37 <=1 
C800: x26+x40-y26_40 <=1 
C801: x26+x41 <=1 
C802: x26+x42-y26_42 <=1 
C803: x26+x43 <=1 
C804: x26+x44 <=1 
C805: x26+x46-y26_46 <=1 
C806: x26+x47 <=1 
C807: x26+x51 <=1 
C808: x26+x52 <=1 
C809: x26+x53 <=1 
C810: x26+x55-y26_55 <=1 
C811: x26+x57-y26_57 <=1 
C812: x26+x58 <=1 
C813: x26+x59 <=1 
C814: x26+x60 <=1 
C815: x26+x61 <=1 
C816: x26+x62 <=1 
C817: x27+x28 <=1 
C818: x27+x29 <=1 
C819: x27+x31-y27_31 <=1 
C820: x27+x33 <=1 
C821: x27+x35-y27_35 <=1 
C822: x27+x36 <=1 
C823: x27+x37-y27_37 <=1 
C824: x27+x39 <=1 
C825: x27+x40-y27_40 <=1 
C826: x27+x41-y27_41 <=1 
C827: x27+x43-y27_43 <=1 
C828: x27+x45 <=1 
C829: x27+x46-y27_46 <=1 
C830: x27+x49 <=1 
C831: x27+x50-y27_50 <=1 
C832: x27+x52 <=1 
C833: x27+x54-y27_54 <=1 
C834: x27+x55 <=1 
C835: x27+x56-y27_56 <=1 
C836: x27+x57-y27_57 <=1 
C837: x27+x58 <=1 
C838: x27+x60-y27_60 <=1 
C839: x27+x61 <=1 
C840: x28+x30 <=1 
C841: x28+x31 <=1 
C842: x28+x32-y28_32 <=1 
C843: x28+x33 <=1 
C844: x28+x36 <=1 
C845: x28+x40 <=1 
C846: x28+x41-y28_41 <=1 
C847: x28+x42-y28_42 <=1 
C848: x28+x43 <=1 
C849: x28+x46-y28_46 <=1 
C850: x28+x48-y28_48 <=1 
C851: x28+x50 <=1 
C852: x28+x51-y28_51 <=1 
C853: x28+x52-y28_52 <=1 
C854: x28+x54 <=1 
C855: x28+x55-y28_55 <=1 
C856: x28+x56-y28_56 <=1 
C857: x28+x57-y28_57 <=1 
C858: x28+x58-y28_58 <=1 
C859: x28+x59-y28_59 <=1 
C860: x28+x60 <=1 
C861: x29+x33-y29_33 <=1 
C862: x29+x34 <=1 
C863: x29+x35-y29_35 <=1 
C864: x29+x37 <=1 
C865: x29+x39 <=1 
C866: x29+x40-y29_40 <=1 
C867: x29+x44 <=1 
C868: x29+x46 <=1 
C869: x29+x47 <=1 
C870: x29+x49-y29_49 <=1 
C871: x29+x50 <=1 
C872: x29+x52 <=1 
C873: x29+x53 <=1 
C874: x29+x54 <=1 
C875: x29+x56-y29_56 <=1 
C876: x29+x57-y29_57 <=1 
C877: x29+x58 <=1 
C878: x29+x61 <=1 
C879: x29+x62 <=1 
C880: x29+x63 <=1 
C881: x30+x32-y30_32 <=1 
C882: x30+x33-y30_33 <=1 
C883: x30+x35-y30_35 <=1 
C884: x30+x36 <=1 
C885: x30+x37-y30_37 <=1 
C886: x30+x38-y30_38 <=1 
C887: x30+x40 <=1 
C888: x30+x41 <=1 
C889: x30+x42 <=1 
C890: x30+x45 <=1 
C891: x30+x46 <=1 
C892: x30+x47 <=1 
C893: x30+x49-y30_49 <=1 
C894: x30+x52 <=1 
C895: x30+x53-y30_53 <=1 
C896: x30+x54 <=1 
C897: x30+x55 <=1 
C898: x30+x56 <=1 
C899: x30+x57 <=1 
C900: x30+x59-y30_59 <=1 
C901: x30+x60-y30_60 <=1 
C902: x30+x61 <=1 
C903: x30+x63 <=1 
C904: x31+x32-y31_32 <=1 
C905: x31+x34-y31_34 <=1 
C906: x31+x35-y31_35 <=1 
C907: x31+x41-y31_41 <=1 
C908: x31+x44-y31_44 <=1 
C909: x31+x46 <=1 
C910: x31+x54-y31_54 <=1 
C911: x31+x55-y31_55 <=1 
C912: x31+x56-y31_56 <=1 
C913: x31+x57 <=1 
C914: x31+x59 <=1 
C915: x31+x60 <=1 
C916: x31+x61 <=1 
C917: x31+x63-y31_63 <=1 
C918: x32+x33-y32_33 <=1 
C919: x32+x35 <=1 
C920: x32+x37 <=1 
C921: x32+x39 <=1 
C922: x32+x40 <=1 
C923: x32+x42 <=1 
C924: x32+x45-y32_45 <=1 
C925: x32+x47-y32_47 <=1 
C926: x32+x49 <=1 
C927: x32+x50-y32_50 <=1 
C928: x32+x53 <=1 
C929: x32+x55 <=1 
C930: x32+x56-y32_56 <=1 
C931: x32+x57 <=1 
C932: x32+x58 <=1 
C933: x32+x59 <=1 
C934: x32+x60 <=1 
C935: x32+x61 <=1 
C936: x32+x62 <=1 
C937: x32+x63-y32_63 <=1 
C938: x33+x34 <=1 
C939: x33+x38-y33_38 <=1 
C940: x33+x39 <=1 
C941: x33+x40 <=1 
C942: x33+x41 <=1 
C943: x33+x42 <=1 
C944: x33+x43 <=1 
C945: x33+x46-y33_46 <=1 
C946: x33+x51 <=1 
C947: x33+x52-y33_52 <=1 
C948: x33+x53 <=1 
C949: x33+x54-y33_54 <=1 
C950: x33+x56-y33_56 <=1 
C951: x33+x58-y33_58 <=1 
C952: x33+x60 <=1 
C953: x33+x61-y33_61 <=1 
C954: x33+x63 <=1 
C955: x34+x37-y34_37 <=1 
C956: x34+x38 <=1 
C957: x34+x39 <=1 
C958: x34+x40 <=1 
C959: x34+x41 <=1 
C960: x34+x42-y34_42 <=1 
C961: x34+x44-y34_44 <=1 
C962: x34+x47-y34_47 <=1 
C963: x34+x49-y34_49 <=1 
C964: x34+x52 <=1 
C965: x34+x53-y34_53 <=1 
C966: x34+x56 <=1 
C967: x34+x57-y34_57 <=1 
C968: x34+x58 <=1 
C969: x34+x59 <=1 
C970: x34+x60-y34_60 <=1 
C971: x34+x63-y34_63 <=1 
C972: x35+x37 <=1 
C973: x35+x39-y35_39 <=1 
C974: x35+x40 <=1 
C975: x35+x43 <=1 
C976: x35+x44-y35_44 <=1 
C977: x35+x46 <=1 
C978: x35+x47-y35_47 <=1 
C979: x35+x49-y35_49 <=1 
C980: x35+x50-y35_50 <=1 
C981: x35+x51 <=1 
C982: x35+x52 <=1 
C983: x35+x54 <=1 
C984: x35+x55-y35_55 <=1 
C985: x35+x57-y35_57 <=1 
C986: x35+x58 <=1 
C987: x35+x60-y35_60 <=1 
C988: x35+x61 <=1 
C989: x35+x62 <=1 
C990: x35+x63-y35_63 <=1 
C991: x36+x37 <=1 
C992: x36+x39 <=1 
C993: x36+x43 <=1 
C994: x36+x44-y36_44 <=1 
C995: x36+x48-y36_48 <=1 
C996: x36+x49-y36_49 <=1 
C997: x36+x50-y36_50 <=1 
C998: x36+x51 <=1 
C999: x36+x53 <=1 
C1000: x36+x56 <=1 
C1001: x36+x59-y36_59 <=1 
C1002: x36+x60 <=1 
C1003: x36+x61 <=1 
C1004: x36+x62-y36_62 <=1 
C1005: x36+x63 <=1 
C1006: x37+x38 <=1 
C1007: x37+x39 <=1 
C1008: x37+x41 <=1 
C1009: x37+x43 <=1 
C1010: x37+x44 <=1 
C1011: x37+x45-y37_45 <=1 
C1012: x37+x47 <=1 
C1013: x37+x48 <=1 
C1014: x37+x49-y37_49 <=1 
C1015: x37+x50 <=1 
C1016: x37+x52-y37_52 <=1 
C1017: x37+x53-y37_53 <=1 
C1018: x37+x55-y37_55 <=1 
C1019: x37+x56 <=1 
C1020: x37+x57-y37_57 <=1 
C1021: x37+x59-y37_59 <=1 
C1022: x37+x60-y37_60 <=1 
C1023: x37+x61 <=1 
C1024: x37+x62 <=1 
C1025: x37+x63 <=1 
C1026: x38+x40 <=1 
C1027: x38+x41 <=1 
C1028: x38+x44-y38_44 <=1 
C1029: x38+x45 <=1 
C1030: x38+x46 <=1 
C1031: x38+x48 <=1 
C1032: x38+x49-y38_49 <=1 
C1033: x38+x50 <=1 
C1034: x38+x51 <=1 
C1035: x38+x52-y38_52 <=1 
C1036: x38+x55-y38_55 <=1 
C1037: x38+x58-y38_58 <=1 
C1038: x38+x59 <=1 
C1039: x38+x60-y38_60 <=1 
C1040: x38+x62 <=1 
C1041: x38+x63-y38_63 <=1 
C1042: x39+x43 <=1 
C1043: x39+x45 <=1 
C1044: x39+x46-y39_46 <=1 
C1045: x39+x48-y39_48 <=1 
C1046: x39+x49-y39_49 <=1 
C1047: x39+x50-y39_50 <=1 
C1048: x39+x51-y39_51 <=1 
C1049: x39+x56 <=1 
C1050: x39+x57-y39_57 <=1 
C1051: x39+x58 <=1 
C1052: x39+x59-y39_59 <=1 
C1053: x39+x60-y39_60 <=1 
C1054: x39+x62-y39_62 <=1 
C1055: x40+x41-y40_41 <=1 
C1056: x40+x42-y40_42 <=1 
C1057: x40+x44 <=1 
C1058: x40+x47 <=1 
C1059: x40+x48-y40_48 <=1 
C1060: x40+x53-y40_53 <=1 
C1061: x40+x54 <=1 
C1062: x40+x55-y40_55 <=1 
C1063: x40+x56 <=1 
C1064: x40+x58-y40_58 <=1 
C1065: x40+x59-y40_59 <=1 
C1066: x40+x61 <=1 
C1067: x40+x62 <=1 
C1068: x41+x46-y41_46 <=1 
C1069: x41+x48 <=1 
C1070: x41+x49-y41_49 <=1 
C1071: x41+x52-y41_52 <=1 
C1072: x41+x53 <=1 
C1073: x41+x56-y41_56 <=1 
C1074: x41+x60-y41_60 <=1 
C1075: x41+x61-y41_61 <=1 
C1076: x41+x62 <=1 
C1077: x41+x63-y41_63 <=1 
C1078: x42+x43-y42_43 <=1 
C1079: x42+x45 <=1 
C1080: x42+x48 <=1 
C1081: x42+x51 <=1 
C1082: x42+x52 <=1 
C1083: x42+x54-y42_54 <=1 
C1084: x42+x57-y42_57 <=1 
C1085: x42+x58 <=1 
C1086: x42+x59-y42_59 <=1 
C1087: x42+x60 <=1 
C1088: x42+x61-y42_61 <=1 
C1089: x42+x63-y42_63 <=1 
C1090: x43+x45 <=1 
C1091: x43+x46 <=1 
C1092: x43+x48-y43_48 <=1 
C1093: x43+x52-y43_52 <=1 
C1094: x43+x53 <=1 
C1095: x43+x54-y43_54 <=1 
C1096: x43+x55-y43_55 <=1 
C1097: x43+x56-y43_56 <=1 
C1098: x43+x57 <=1 
C1099: x43+x60 <=1 
C1100: x43+x61-y43_61 <=1 
C1101: x43+x63 <=1 
C1102: x44+x45-y44_45 <=1 
C1103: x44+x47 <=1 
C1104: x44+x48 <=1 
C1105: x44+x50 <=1 
C1106: x44+x52 <=1 
C1107: x44+x53 <=1 
C1108: x44+x54-y44_54 <=1 
C1109: x44+x55-y44_55 <=1 
C1110: x44+x57 <=1 
C1111: x44+x58-y44_58 <=1 
C1112: x44+x60 <=1 
C1113: x45+x46 <=1 
C1114: x45+x51 <=1 
C1115: x45+x52-y45_52 <=1 
C1116: x45+x53 <=1 
C1117: x45+x54 <=1 
C1118: x45+x56 <=1 
C1119: x45+x58 <=1 
C1120: x45+x59-y45_59 <=1 
C1121: x45+x61 <=1 
C1122: x45+x62 <=1 
C1123: x45+x63 <=1 
C1124: x46+x47-y46_47 <=1 
C1125: x46+x50-y46_50 <=1 
C1126: x46+x51 <=1 
C1127: x46+x52 <=1 
C1128: x46+x54 <=1 
C1129: x46+x55-y46_55 <=1 
C1130: x46+x57-y46_57 <=1 
C1131: x46+x58-y46_58 <=1 
C1132: x46+x59 <=1 
C1133: x46+x62-y46_62 <=1 
C1134: x47+x49 <=1 
C1135: x47+x51-y47_51 <=1 
C1136: x47+x55-y47_55 <=1 
C1137: x47+x56 <=1 
C1138: x47+x57 <=1 
C1139: x47+x59 <=1 
C1140: x47+x60-y47_60 <=1 
C1141: x47+x61 <=1 
C1142: x48+x51 <=1 
C1143: x48+x52-y48_52 <=1 
C1144: x48+x56 <=1 
C1145: x48+x58 <=1 
C1146: x48+x59 <=1 
C1147: x48+x62-y48_62 <=1 
C1148: x49+x50-y49_50 <=1 
C1149: x49+x55 <=1 
C1150: x49+x56-y49_56 <=1 
C1151: x49+x57-y49_57 <=1 
C1152: x49+x59 <=1 
C1153: x49+x60 <=1 
C1154: x49+x62 <=1 
C1155: x49+x63-y49_63 <=1 
C1156: x50+x51-y50_51 <=1 
C1157: x50+x53 <=1 
C1158: x50+x54 <=1 
C1159: x50+x55-y50_55 <=1 
C1160: x50+x56 <=1 
C1161: x50+x57-y50_57 <=1 
C1162: x50+x58 <=1 
C1163: x50+x61 <=1 
C1164: x50+x62 <=1 
C1165: x50+x63-y50_63 <=1 
C1166: x51+x53 <=1 
C1167: x51+x54 <=1 
C1168: x51+x55-y51_55 <=1 
C1169: x51+x57-y51_57 <=1 
C1170: x51+x60-y51_60 <=1 
C1171: x51+x61 <=1 
C1172: x51+x62 <=1 
C1173: x51+x63-y51_63 <=1 
C1174: x52+x53-y52_53 <=1 
C1175: x52+x54 <=1 
C1176: x52+x55 <=1 
C1177: x52+x57 <=1 
C1178: x52+x58-y52_58 <=1 
C1179: x52+x59 <=1 
C1180: x52+x62 <=1 
C1181: x52+x63 <=1 
C1182: x53+x56-y53_56 <=1 
C1183: x53+x57-y53_57 <=1 
C1184: x53+x58-y53_58 <=1 
C1185: x53+x61 <=1 
C1186: x53+x62 <=1 
C1187: x53+x63 <=1 
C1188: x54+x55 <=1 
C1189: x54+x56 <=1 
C1190: x54+x57 <=1 
C1191: x54+x58 <=1 
C1192: x54+x60 <=1 
C1193: x55+x56 <=1 
C1194: x55+x57 <=1 
C1195: x55+x58 <=1 
C1196: x55+x59 <=1 
C1197: x55+x61 <=1 
C1198: x56+x57 <=1 
C1199: x56+x60 <=1 
C1200: x56+x62 <=1 
C1201: x56+x63-y56_63 <=1 
C1202: x57+x61 <=1 
C1203: x58+x60-y58_60 <=1 
C1204: x58+x62 <=1 
C1205: x59+x60 <=1 
C1206: x59+x61 <=1 
C1207: x60+x61-y60_61 <=1 
C1208: x60+x62 <=1 
C1209: x60+x63 <=1 
C1210: x61+x62 <=1 

binary
x0
x1
x2
x3
x4
x5
x6
x7
x8
x9
x10
x11
x12
x13
x14
x15
x16
x17
x18
x19
x20
x21
x22
x23
x24
x25
x26
x27
x28
x29
x30
x31
x32
x33
x34
x35
x36
x37
x38
x39
x40
x41
x42
x43
x44
x45
x46
x47
x48
x49
x50
x51
x52
x53
x54
x55
x56
x57
x58
x59
x60
x61
x62
x63
